
<<< setup


<<< generate

 ! --------------------------------------------------- CP Optimizer 22.1.1.0 --
 ! Satisfiability problem - 40 variables, 296 constraints
 ! Presolve      : 81 extractables eliminated, 27 constraints generated
 ! ParallelMode         = 1
 ! Workers              = 8
 ! Initial process time : 0.01s (0.01s extraction + 0.00s propagation)
 !  . Log search space  : 80.0 (before), 80.0 (after)
 !  . Memory usage      : 528.6 kB (before), 528.6 kB (after)
 ! Using parallel search with 8 workers.
 ! ----------------------------------------------------------------------------
 !               Branches  Non-fixed    W       Branch decision
 *                    257  0.03s        5         0  = x(1)(8)
 ! ----------------------------------------------------------------------------
 ! Search completed, 1 solution found.
 ! ----------------------------------------------------------------------------
 ! Number of branches     : 6730
 ! Number of fails        : 3076
 ! Total memory usage     : 9.3 MB (8.8 MB CP Optimizer + 0.4 MB Concert)
 ! Time spent in solve    : 0.03s (0.02s engine + 0.01s extraction)
 ! Search speed (br. / s) : 336500.0
 ! ----------------------------------------------------------------------------

<<< solve



OBJECTIVE: no objective
===== Nurse Rostering Schedule =====
Shifts: D=Day, E=Evening, N=Night, O=Off

Nurse 1: E D O N E O O D D O E E E D N D O E E O O E E O D D N D D N O E E O O E E O D E 

<<< post process


<<< done

